0 3847
1 3816
2 3772
3 3755
4 3721
6 3697
9 3696
10 3666
11 3620
15 3601
19 3596
21 3587
26 3574
33 3565
44 3546
45 3545
61 3529
63 3459
73 3408
76 3400
90 3394
99 3355
119 3348
147 3344
163 3342
227 3337
234 3324
273 3322
287 3314
295 3307
297 3296
357 3292
360 3290
368 3289
399 3285
414 3282
430 3281
434 3273
438 3267
478 3265
488 3251
497 3248
515 3230
546 3229
618 3220
674 3211
684 3205
728 3202
1363 3200
1477 3197
